\ Equation counts
\     Total        E        G        L        N        X        C        B
\	0	0	0	0
\
\ Variable counts
\                  x        b        i      s1s      s2s       sc       si
\     Total     cont   binary  integer     sos1     sos2    scont     sint
\	90	90

\ Nonzero counts
\     Total    const       NL      DLL
\
\
Minimize
 obj: [ - 2.0 x_1 * x_2 + 17.5 x_1 * x_5 - 17.0 x_1 * x_9 - 24.0 x_1 * x_13 - 9.0 x_1 * x_18 + 21.5 x_1 * x_22 + 23.5 x_1 * x_23 - 17.0 x_1 * x_24 + 7.5 x_1 * x_25 + 0.5 x_1 * x_26 + 3.5 x_1 * x_32 - 6.5 x_1 * x_38 + 24.5 x_1 * x_40 - 19.5 x_1 * x_42 - 18.0 x_1 * x_43 + 22.0 x_1 * x_48 + 22.0 x_1 * x_53 - 12.5 x_1 * x_57 - 10.0 x_1 * x_66 + 20.5 x_1 * x_82 - 18.0 x_1 * x_84 - 21.0 x_1 * x_88 - 2.0 x_2 * x_1 - 3.5 x_2 * x_7 + 20.5 x_2 * x_22 + 11.5 x_2 * x_23 - 6.0 x_2 * x_29 - 9.5 x_2 * x_30 + 19.5 x_2 * x_31 + 10.5 x_2 * x_40 - 12.0 x_2 * x_42 - 9.0 x_2 * x_43 - 9.0 x_2 * x_48 + 11.0 x_2 * x_54 + 6.5 x_2 * x_57 - 19.5 x_2 * x_62 + 14.0 x_2 * x_64 - 10.5 x_2 * x_67 + 1.0 x_2 * x_74 + 10.5 x_2 * x_86 + 8.5 x_3 * x_12 - 11.0 x_3 * x_17 - 13.5 x_3 * x_23 - 6.5 x_3 * x_25 - 16.0 x_3 * x_30 + 8.0 x_3 * x_31 - 1.5 x_3 * x_32 + 11.5 x_3 * x_34 + 24.5 x_3 * x_35 - 17.5 x_3 * x_37 - 6.0 x_3 * x_38 - 20.0 x_3 * x_45 + 2.5 x_3 * x_46 - 0.5 x_3 * x_50 + 17.5 x_3 * x_53 - 12.0 x_3 * x_56 + 20.5 x_3 * x_68 - 21.5 x_3 * x_69 + 8.5 x_3 * x_84 - 19.5 x_4 * x_8 - 1.5 x_4 * x_11 + 7.0 x_4 * x_13 - 7.0 x_4 * x_14 - 16.5 x_4 * x_16 - 2.0 x_4 * x_17 + 11.0 x_4 * x_21 - 21.5 x_4 * x_29 - 11.0 x_4 * x_30 + 12.0 x_4 * x_35 - 5.5 x_4 * x_36 - 6.5 x_4 * x_40 + 9.5 x_4 * x_50 - 20.5 x_4 * x_51 - 8.0 x_4 * x_52 - 5.5 x_4 * x_60 - 12.0 x_4 * x_61 + 6.0 x_4 * x_63 + 15.0 x_4 * x_65 + 22.5 x_4 * x_68 - 16.5 x_4 * x_69 + 19.5 x_4 * x_71 - 8.0 x_4 * x_78 - 21.0 x_4 * x_83 + 12.0 x_4 * x_84 - 2.0 x_4 * x_86 - 1.5 x_4 * x_87 + 8.5 x_4 * x_88 + 19.0 x_4 * x_90 + 17.5 x_5 * x_1 - 20.5 x_5 * x_7 - 10.0 x_5 * x_8 - 17.0 x_5 * x_11 + 0.5 x_5 * x_13 - 7.0 x_5 * x_16 - 5.0 x_5 * x_28 + 10.5 x_5 * x_31 + 3.5 x_5 * x_32 + 15.0 x_5 * x_33 + 13.0 x_5 * x_49 + 14.0 x_5 * x_50 - 19.5 x_5 * x_51 + 17.0 x_5 * x_54 + 7.0 x_5 * x_57 - 4.0 x_5 * x_58 - 7.5 x_5 * x_68 - 15.5 x_5 * x_73 - 8.5 x_5 * x_75 - 21.5 x_5 * x_79 - 22.5 x_5 * x_80 - 7.5 x_5 * x_82 - 22.0 x_5 * x_84 - 20.0 x_5 * x_87 - 17.5 x_5 * x_88 + 9.0 x_5 * x_89 - 18.5 x_5 * x_90 + 15.5 x_6 * x_12 - 12.0 x_6 * x_15 - 9.0 x_6 * x_16 + 16.0 x_6 * x_20 - 11.5 x_6 * x_21 + 9.5 x_6 * x_22 + 7.0 x_6 * x_24 - 7.0 x_6 * x_30 - 2.0 x_6 * x_31 + 23.5 x_6 * x_35 + 18.0 x_6 * x_36 - 9.5 x_6 * x_40 + 17.5 x_6 * x_41 - 11.5 x_6 * x_46 + 20.0 x_6 * x_47 - 10.0 x_6 * x_50 - 18.5 x_6 * x_54 + 12.0 x_6 * x_56 + 22.5 x_6 * x_57 - 16.0 x_6 * x_58 - 2.5 x_6 * x_64 - 8.0 x_6 * x_67 - 13.5 x_6 * x_75 - 3.0 x_6 * x_76 + 24.5 x_6 * x_81 - 17.5 x_6 * x_82 + 11.5 x_6 * x_86 - 20.5 x_6 * x_90 - 3.5 x_7 * x_2 - 20.5 x_7 * x_5 + 4.5 x_7 * x_13 - 7.0 x_7 * x_19 + 22.0 x_7 * x_20 - 12.0 x_7 * x_22 + 21.0 x_7 * x_25 + 9.0 x_7 * x_30 - 12.5 x_7 * x_36 - 15.5 x_7 * x_39 + 24.0 x_7 * x_43 - 10.0 x_7 * x_46 + 6.0 x_7 * x_53 - 4.0 x_7 * x_54 + 23.5 x_7 * x_63 + 11.5 x_7 * x_64 + 22.5 x_7 * x_65 + 7.0 x_7 * x_68 + 15.0 x_7 * x_72 + 17.0 x_7 * x_78 + 6.0 x_7 * x_89 - 19.5 x_8 * x_4 - 10.0 x_8 * x_5 + 18.5 x_8 * x_17 - 18.0 x_8 * x_23 + 15.0 x_8 * x_28 - 22.0 x_8 * x_29 - 8.0 x_8 * x_35 - 1.0 x_8 * x_37 + 20.5 x_8 * x_40 - 12.5 x_8 * x_44 - 21.0 x_8 * x_46 - 22.0 x_8 * x_49 + 19.5 x_8 * x_53 - 5.5 x_8 * x_58 - 16.0 x_8 * x_60 - 9.0 x_8 * x_62 - 3.5 x_8 * x_67 - 17.5 x_8 * x_70 - 16.5 x_8 * x_74 + 2.5 x_8 * x_80 + 13.0 x_8 * x_85 + 9.5 x_8 * x_87 - 15.0 x_8 * x_89 + 9.0 x_8 * x_90 - 17.0 x_9 * x_1 - 9.5 x_9 * x_12 + 23.5 x_9 * x_14 - 14.0 x_9 * x_16 + 18.5 x_9 * x_18 - 4.5 x_9 * x_22 - 16.5 x_9 * x_25 + 21.0 x_9 * x_28 + 21.5 x_9 * x_32 - 9.0 x_9 * x_36 + 4.0 x_9 * x_37 + 24.0 x_9 * x_38 + 4.5 x_9 * x_39 + 17.0 x_9 * x_43 - 11.0 x_9 * x_46 - 16.5 x_9 * x_47 + 21.5 x_9 * x_48 - 9.0 x_9 * x_60 + 23.0 x_9 * x_64 - 4.0 x_9 * x_65 - 7.0 x_9 * x_66 - 9.0 x_9 * x_70 - 2.5 x_9 * x_71 + 22.0 x_9 * x_77 + 16.5 x_9 * x_80 - 15.0 x_9 * x_81 - 20.0 x_9 * x_82 + 8.0 x_9 * x_90 + 24.0 x_10 * x_13 - 19.0 x_10 * x_16 + 5.5 x_10 * x_18 - 13.0 x_10 * x_21 + 18.5 x_10 * x_23 - 17.0 x_10 * x_25 - 1.0 x_10 * x_26 - 7.5 x_10 * x_28 + 8.0 x_10 * x_32 - 9.5 x_10 * x_33 - 23.0 x_10 * x_35 + 24.5 x_10 * x_47 - 2.0 x_10 * x_50 + 1.5 x_10 * x_51 + 19.5 x_10 * x_52 + 6.5 x_10 * x_54 + 16.5 x_10 * x_58 - 24.0 x_10 * x_59 - 15.0 x_10 * x_62 + 2.0 x_10 * x_73 - 2.5 x_10 * x_74 - 0.5 x_10 * x_75 + 12.0 x_10 * x_82 - 16.5 x_10 * x_87 - 1.5 x_11 * x_4 - 17.0 x_11 * x_5 - 2.5 x_11 * x_19 - 24.0 x_11 * x_20 + 21.0 x_11 * x_22 + 15.5 x_11 * x_28 - 18.0 x_11 * x_33 + 21.5 x_11 * x_44 - 17.5 x_11 * x_45 - 7.5 x_11 * x_54 + 20.0 x_11 * x_57 - 9.5 x_11 * x_62 + 24.5 x_11 * x_65 + 19.5 x_11 * x_69 + 4.0 x_11 * x_74 - 24.0 x_11 * x_81 - 3.5 x_11 * x_83 - 7.5 x_11 * x_86 - 13.5 x_11 * x_89 + 8.5 x_12 * x_3 + 15.5 x_12 * x_6 - 9.5 x_12 * x_9 - 9.5 x_12 * x_13 - 14.0 x_12 * x_16 - 2.0 x_12 * x_18 - 1.0 x_12 * x_19 + 24.0 x_12 * x_29 - 17.0 x_12 * x_34 + 6.0 x_12 * x_38 - 12.5 x_12 * x_43 - 6.5 x_12 * x_48 + 3.5 x_12 * x_52 - 14.0 x_12 * x_58 - 20.0 x_12 * x_59 + 15.0 x_12 * x_63 + 15.0 x_12 * x_67 + 24.0 x_12 * x_71 - 24.5 x_12 * x_72 - 1.0 x_12 * x_75 - 14.0 x_12 * x_78 - 3.0 x_12 * x_84 - 17.5 x_12 * x_85 - 24.0 x_13 * x_1 + 7.0 x_13 * x_4 + 0.5 x_13 * x_5 + 4.5 x_13 * x_7 + 24.0 x_13 * x_10 - 9.5 x_13 * x_12 - 9.0 x_13 * x_14 - 24.0 x_13 * x_18 - 20.0 x_13 * x_22 - 8.0 x_13 * x_25 - 10.5 x_13 * x_30 - 9.5 x_13 * x_35 - 23.5 x_13 * x_39 + 7.5 x_13 * x_44 + 1.5 x_13 * x_48 - 2.0 x_13 * x_50 - 17.5 x_13 * x_65 - 22.0 x_13 * x_66 - 8.5 x_13 * x_69 + 19.0 x_13 * x_70 + 21.0 x_13 * x_71 + 5.0 x_13 * x_75 + 19.5 x_13 * x_76 + 0.5 x_13 * x_80 + 4.0 x_13 * x_81 + 16.0 x_13 * x_82 - 8.5 x_13 * x_84 + 1.0 x_13 * x_87 - 14.5 x_13 * x_89 + 19.5 x_13 * x_90 - 7.0 x_14 * x_4 + 23.5 x_14 * x_9 - 9.0 x_14 * x_13 - 15.0 x_14 * x_14 + 21.0 x_14 * x_18 - 1.5 x_14 * x_19 + 11.0 x_14 * x_22 - 6.5 x_14 * x_26 - 21.5 x_14 * x_27 + 23.5 x_14 * x_29 + 16.5 x_14 * x_30 - 6.5 x_14 * x_31 + 20.0 x_14 * x_41 + 22.0 x_14 * x_48 + 15.5 x_14 * x_52 - 22.0 x_14 * x_55 - 16.0 x_14 * x_59 + 20.5 x_14 * x_60 + 2.0 x_14 * x_61 + 22.5 x_14 * x_70 - 13.0 x_14 * x_72 - 2.5 x_14 * x_82 - 5.5 x_14 * x_85 - 12.0 x_15 * x_6 - 23.5 x_15 * x_15 - 24.5 x_15 * x_17 + 12.0 x_15 * x_23 - 14.0 x_15 * x_25 - 13.0 x_15 * x_30 + 23.0 x_15 * x_32 - 4.0 x_15 * x_33 + 8.5 x_15 * x_34 + 21.0 x_15 * x_38 + 22.0 x_15 * x_50 - 22.0 x_15 * x_54 - 20.5 x_15 * x_55 + 8.5 x_15 * x_57 + 9.0 x_15 * x_69 - 5.0 x_15 * x_75 + 1.0 x_15 * x_76 - 16.5 x_15 * x_77 + 0.5 x_15 * x_80 + 19.0 x_15 * x_90 - 16.5 x_16 * x_4 - 7.0 x_16 * x_5 - 9.0 x_16 * x_6 - 14.0 x_16 * x_9 - 19.0 x_16 * x_10 - 14.0 x_16 * x_12 + 2.5 x_16 * x_16 - 7.5 x_16 * x_17 + 9.5 x_16 * x_18 - 7.5 x_16 * x_35 - 3.0 x_16 * x_36 + 5.5 x_16 * x_37 + 14.0 x_16 * x_38 - 1.5 x_16 * x_40 - 0.5 x_16 * x_42 + 4.5 x_16 * x_60 - 7.0 x_16 * x_62 + 23.5 x_16 * x_69 + 1.0 x_16 * x_73 + 22.5 x_16 * x_75 - 20.5 x_16 * x_77 + 0.5 x_16 * x_80 + 23.0 x_16 * x_84 - 10.0 x_16 * x_89 + 11.0 x_16 * x_90 - 11.0 x_17 * x_3 - 2.0 x_17 * x_4 + 18.5 x_17 * x_8 - 24.5 x_17 * x_15 - 7.5 x_17 * x_16 - 0.5 x_17 * x_17 + 24.5 x_17 * x_20 - 0.5 x_17 * x_24 + 12.0 x_17 * x_27 - 9.5 x_17 * x_31 + 16.5 x_17 * x_33 + 8.5 x_17 * x_38 + 5.5 x_17 * x_41 + 14.0 x_17 * x_42 + 1.0 x_17 * x_45 + 6.5 x_17 * x_47 - 2.5 x_17 * x_50 - 1.0 x_17 * x_55 - 12.0 x_17 * x_58 + 16.5 x_17 * x_59 + 4.0 x_17 * x_63 + 3.0 x_17 * x_65 + 17.0 x_17 * x_68 + 7.0 x_17 * x_69 - 9.0 x_17 * x_71 - 14.5 x_17 * x_74 - 22.0 x_17 * x_82 + 16.0 x_17 * x_88 - 9.0 x_18 * x_1 + 18.5 x_18 * x_9 + 5.5 x_18 * x_10 - 2.0 x_18 * x_12 - 24.0 x_18 * x_13 + 21.0 x_18 * x_14 + 9.5 x_18 * x_16 - 23.0 x_18 * x_18 + 17.0 x_18 * x_30 + 15.5 x_18 * x_37 + 8.0 x_18 * x_38 + 16.5 x_18 * x_44 + 9.5 x_18 * x_46 + 10.0 x_18 * x_48 + 7.0 x_18 * x_56 + 11.5 x_18 * x_63 - 23.0 x_18 * x_64 + 11.0 x_18 * x_66 + 20.0 x_18 * x_70 - 14.5 x_18 * x_75 + 11.5 x_18 * x_78 - 14.0 x_18 * x_86 - 13.5 x_18 * x_89 - 7.0 x_19 * x_7 - 2.5 x_19 * x_11 - 1.0 x_19 * x_12 - 1.5 x_19 * x_14 - 22.0 x_19 * x_21 + 1.0 x_19 * x_24 - 19.5 x_19 * x_26 + 19.5 x_19 * x_29 + 5.5 x_19 * x_31 + 24.0 x_19 * x_33 + 19.5 x_19 * x_35 + 16.0 x_19 * x_44 + 11.5 x_19 * x_45 - 18.0 x_19 * x_54 - 17.5 x_19 * x_55 - 13.5 x_19 * x_56 + 17.0 x_19 * x_59 - 24.5 x_19 * x_61 + 6.0 x_19 * x_78 + 0.5 x_19 * x_85 + 16.0 x_20 * x_6 + 22.0 x_20 * x_7 - 24.0 x_20 * x_11 + 24.5 x_20 * x_17 - 11.5 x_20 * x_25 - 20.0 x_20 * x_31 - 11.5 x_20 * x_34 + 23.0 x_20 * x_44 - 17.5 x_20 * x_53 + 17.5 x_20 * x_55 + 4.0 x_20 * x_57 - 12.0 x_20 * x_60 - 11.5 x_20 * x_70 + 9.0 x_20 * x_75 + 1.5 x_20 * x_76 + 6.0 x_20 * x_84 - 6.0 x_20 * x_86 + 15.5 x_20 * x_88 + 11.0 x_21 * x_4 - 11.5 x_21 * x_6 - 13.0 x_21 * x_10 - 22.0 x_21 * x_19 + 10.0 x_21 * x_34 + 16.0 x_21 * x_35 - 15.0 x_21 * x_53 - 12.5 x_21 * x_56 - 9.5 x_21 * x_58 - 7.5 x_21 * x_60 - 10.0 x_21 * x_67 - 8.0 x_21 * x_72 - 5.0 x_21 * x_80 + 2.5 x_21 * x_82 + 7.0 x_21 * x_84 - 15.0 x_21 * x_88 + 21.5 x_22 * x_1 + 20.5 x_22 * x_2 + 9.5 x_22 * x_6 - 12.0 x_22 * x_7 - 4.5 x_22 * x_9 + 21.0 x_22 * x_11 - 20.0 x_22 * x_13 + 11.0 x_22 * x_14 - 3.0 x_22 * x_23 + 21.0 x_22 * x_26 - 6.5 x_22 * x_29 - 20.0 x_22 * x_30 - 15.0 x_22 * x_43 - 18.0 x_22 * x_44 - 5.5 x_22 * x_49 - 13.5 x_22 * x_50 - 8.5 x_22 * x_51 - 15.0 x_22 * x_53 - 11.0 x_22 * x_57 - 13.5 x_22 * x_59 - 2.0 x_22 * x_62 - 10.0 x_22 * x_64 - 11.5 x_22 * x_70 - 23.0 x_22 * x_79 + 3.0 x_22 * x_82 + 6.0 x_22 * x_83 - 23.5 x_22 * x_85 - 2.0 x_22 * x_89 + 23.5 x_23 * x_1 + 11.5 x_23 * x_2 - 13.5 x_23 * x_3 - 18.0 x_23 * x_8 + 18.5 x_23 * x_10 + 12.0 x_23 * x_15 - 3.0 x_23 * x_22 - 11.5 x_23 * x_30 - 12.0 x_23 * x_37 + 0.5 x_23 * x_38 - 24.0 x_23 * x_39 - 7.5 x_23 * x_41 - 9.0 x_23 * x_44 - 8.5 x_23 * x_51 - 16.0 x_23 * x_56 - 18.0 x_23 * x_57 - 20.5 x_23 * x_69 - 3.0 x_23 * x_71 - 23.0 x_23 * x_74 - 18.5 x_23 * x_84 - 7.5 x_23 * x_87 + 14.0 x_23 * x_89 - 17.0 x_24 * x_1 + 7.0 x_24 * x_6 - 0.5 x_24 * x_17 + 1.0 x_24 * x_19 + 3.0 x_24 * x_27 + 3.0 x_24 * x_38 + 20.0 x_24 * x_46 - 20.0 x_24 * x_56 + 5.5 x_24 * x_62 + 6.5 x_24 * x_67 - 22.0 x_24 * x_76 + 11.0 x_24 * x_82 - 17.0 x_24 * x_85 + 14.5 x_24 * x_86 + 3.5 x_24 * x_88 + 7.5 x_25 * x_1 - 6.5 x_25 * x_3 + 21.0 x_25 * x_7 - 16.5 x_25 * x_9 - 17.0 x_25 * x_10 - 8.0 x_25 * x_13 - 14.0 x_25 * x_15 - 11.5 x_25 * x_20 + 15.5 x_25 * x_28 + 12.5 x_25 * x_29 - 13.0 x_25 * x_30 - 5.5 x_25 * x_31 + 19.5 x_25 * x_38 + 7.0 x_25 * x_39 - 7.5 x_25 * x_41 + 24.0 x_25 * x_43 - 9.0 x_25 * x_44 + 22.5 x_25 * x_49 + 20.5 x_25 * x_51 + 2.5 x_25 * x_53 + 6.0 x_25 * x_54 - 7.0 x_25 * x_56 + 18.5 x_25 * x_58 + 6.0 x_25 * x_66 + 21.5 x_25 * x_69 + 7.0 x_25 * x_73 - 10.5 x_25 * x_78 + 4.5 x_25 * x_79 + 18.0 x_25 * x_81 - 23.5 x_25 * x_83 - 9.5 x_25 * x_85 + 0.5 x_26 * x_1 - 1.0 x_26 * x_10 - 6.5 x_26 * x_14 - 19.5 x_26 * x_19 + 21.0 x_26 * x_22 + 18.5 x_26 * x_31 + 4.5 x_26 * x_32 + 10.0 x_26 * x_33 - 13.5 x_26 * x_34 + 13.5 x_26 * x_36 + 3.5 x_26 * x_40 - 22.5 x_26 * x_41 + 11.5 x_26 * x_49 + 2.5 x_26 * x_56 + 17.0 x_26 * x_57 + 5.0 x_26 * x_61 - 2.5 x_26 * x_64 + 22.0 x_26 * x_66 + 17.0 x_26 * x_74 - 0.5 x_26 * x_85 - 21.5 x_26 * x_89 - 21.5 x_27 * x_14 + 12.0 x_27 * x_17 + 3.0 x_27 * x_24 - 15.5 x_27 * x_27 + 24.0 x_27 * x_29 - 8.5 x_27 * x_32 - 23.0 x_27 * x_37 - 9.0 x_27 * x_38 - 20.0 x_27 * x_44 - 7.5 x_27 * x_46 + 1.0 x_27 * x_47 - 19.0 x_27 * x_54 + 16.0 x_27 * x_58 + 22.0 x_27 * x_61 - 7.5 x_27 * x_67 - 19.0 x_27 * x_69 - 17.0 x_27 * x_72 - 18.0 x_27 * x_74 - 19.0 x_27 * x_75 - 8.0 x_27 * x_84 - 5.0 x_28 * x_5 + 15.0 x_28 * x_8 + 21.0 x_28 * x_9 - 7.5 x_28 * x_10 + 15.5 x_28 * x_11 + 15.5 x_28 * x_25 + 3.5 x_28 * x_30 + 24.5 x_28 * x_33 + 6.5 x_28 * x_35 - 12.5 x_28 * x_36 + 24.0 x_28 * x_38 - 17.0 x_28 * x_40 + 10.5 x_28 * x_42 + 6.5 x_28 * x_57 - 7.0 x_28 * x_58 - 11.5 x_28 * x_60 - 3.5 x_28 * x_61 + 8.5 x_28 * x_63 + 6.0 x_28 * x_64 + 7.0 x_28 * x_68 + 6.5 x_28 * x_70 + 19.5 x_28 * x_89 - 6.0 x_29 * x_2 - 21.5 x_29 * x_4 - 22.0 x_29 * x_8 + 24.0 x_29 * x_12 + 23.5 x_29 * x_14 + 19.5 x_29 * x_19 - 6.5 x_29 * x_22 + 12.5 x_29 * x_25 + 24.0 x_29 * x_27 - 2.0 x_29 * x_31 + 16.0 x_29 * x_37 - 4.0 x_29 * x_47 + 19.5 x_29 * x_57 - 2.0 x_29 * x_64 - 5.5 x_29 * x_67 - 11.5 x_29 * x_69 - 19.5 x_29 * x_78 - 22.0 x_29 * x_87 - 9.5 x_30 * x_2 - 16.0 x_30 * x_3 - 11.0 x_30 * x_4 - 7.0 x_30 * x_6 + 9.0 x_30 * x_7 - 10.5 x_30 * x_13 + 16.5 x_30 * x_14 - 13.0 x_30 * x_15 + 17.0 x_30 * x_18 - 20.0 x_30 * x_22 - 11.5 x_30 * x_23 - 13.0 x_30 * x_25 + 3.5 x_30 * x_28 + 17.0 x_30 * x_33 + 5.5 x_30 * x_35 + 22.5 x_30 * x_37 - 24.0 x_30 * x_46 - 14.0 x_30 * x_47 - 8.0 x_30 * x_52 + 16.0 x_30 * x_54 - 17.0 x_30 * x_61 + 10.5 x_30 * x_62 + 17.5 x_30 * x_64 - 12.5 x_30 * x_65 - 10.0 x_30 * x_68 - 18.0 x_30 * x_69 + 18.5 x_30 * x_70 + 2.0 x_30 * x_73 - 4.0 x_30 * x_80 + 21.5 x_30 * x_81 + 9.0 x_30 * x_82 + 10.0 x_30 * x_84 + 19.5 x_31 * x_2 + 8.0 x_31 * x_3 + 10.5 x_31 * x_5 - 2.0 x_31 * x_6 - 6.5 x_31 * x_14 - 9.5 x_31 * x_17 + 5.5 x_31 * x_19 - 20.0 x_31 * x_20 - 5.5 x_31 * x_25 + 18.5 x_31 * x_26 - 2.0 x_31 * x_29 - 16.0 x_31 * x_39 - 16.5 x_31 * x_41 - 14.0 x_31 * x_42 + 3.0 x_31 * x_46 + 6.0 x_31 * x_49 + 21.0 x_31 * x_54 - 1.0 x_31 * x_58 - 15.0 x_31 * x_66 + 18.0 x_31 * x_67 + 19.5 x_31 * x_69 - 1.5 x_31 * x_70 + 11.0 x_31 * x_73 - 23.5 x_31 * x_76 - 23.5 x_31 * x_84 + 3.5 x_32 * x_1 - 1.5 x_32 * x_3 + 3.5 x_32 * x_5 + 21.5 x_32 * x_9 + 8.0 x_32 * x_10 + 23.0 x_32 * x_15 + 4.5 x_32 * x_26 - 8.5 x_32 * x_27 - 16.0 x_32 * x_34 - 14.0 x_32 * x_48 - 23.5 x_32 * x_55 - 17.5 x_32 * x_57 - 0.5 x_32 * x_58 - 6.0 x_32 * x_60 - 22.5 x_32 * x_61 + 19.0 x_32 * x_63 + 14.5 x_32 * x_65 - 11.0 x_32 * x_70 - 18.5 x_32 * x_77 - 5.5 x_32 * x_80 + 5.0 x_32 * x_86 - 20.5 x_32 * x_87 - 15.0 x_32 * x_88 - 2.0 x_32 * x_89 - 0.5 x_32 * x_90 + 15.0 x_33 * x_5 - 9.5 x_33 * x_10 - 18.0 x_33 * x_11 - 4.0 x_33 * x_15 + 16.5 x_33 * x_17 + 24.0 x_33 * x_19 + 10.0 x_33 * x_26 + 24.5 x_33 * x_28 + 17.0 x_33 * x_30 - 5.0 x_33 * x_34 - 19.5 x_33 * x_43 + 12.5 x_33 * x_46 - 16.0 x_33 * x_47 - 15.0 x_33 * x_54 - 20.5 x_33 * x_55 + 3.5 x_33 * x_56 - 10.5 x_33 * x_59 + 3.5 x_33 * x_62 - 14.0 x_33 * x_67 + 23.5 x_33 * x_77 + 12.5 x_33 * x_85 + 11.5 x_34 * x_3 - 17.0 x_34 * x_12 + 8.5 x_34 * x_15 - 11.5 x_34 * x_20 + 10.0 x_34 * x_21 - 13.5 x_34 * x_26 - 16.0 x_34 * x_32 - 5.0 x_34 * x_33 + 2.0 x_34 * x_40 + 2.5 x_34 * x_49 + 10.0 x_34 * x_50 - 9.0 x_34 * x_55 + 5.5 x_34 * x_58 + 4.5 x_34 * x_63 - 12.0 x_34 * x_66 + 10.5 x_34 * x_68 - 21.0 x_34 * x_69 - 0.5 x_34 * x_76 + 7.5 x_34 * x_77 - 22.0 x_34 * x_80 - 1.5 x_34 * x_87 + 24.5 x_35 * x_3 + 12.0 x_35 * x_4 + 23.5 x_35 * x_6 - 8.0 x_35 * x_8 - 23.0 x_35 * x_10 - 9.5 x_35 * x_13 - 7.5 x_35 * x_16 + 19.5 x_35 * x_19 + 16.0 x_35 * x_21 + 6.5 x_35 * x_28 + 5.5 x_35 * x_30 + 22.5 x_35 * x_39 + 18.5 x_35 * x_40 - 15.5 x_35 * x_44 + 21.0 x_35 * x_48 - 14.5 x_35 * x_55 + 14.5 x_35 * x_58 - 11.5 x_35 * x_59 + 10.0 x_35 * x_60 + 6.0 x_35 * x_73 + 4.0 x_35 * x_74 + 3.5 x_35 * x_80 - 14.0 x_35 * x_85 + 19.5 x_35 * x_89 - 5.5 x_36 * x_4 + 18.0 x_36 * x_6 - 12.5 x_36 * x_7 - 9.0 x_36 * x_9 - 3.0 x_36 * x_16 + 13.5 x_36 * x_26 - 12.5 x_36 * x_28 - 11.0 x_36 * x_39 + 15.0 x_36 * x_40 - 8.0 x_36 * x_44 + 1.0 x_36 * x_51 - 0.5 x_36 * x_62 + 1.0 x_36 * x_69 + 2.0 x_36 * x_70 - 21.5 x_36 * x_74 + 21.5 x_36 * x_78 + 8.5 x_36 * x_81 - 22.0 x_36 * x_83 - 13.0 x_36 * x_85 - 17.5 x_37 * x_3 - 1.0 x_37 * x_8 + 4.0 x_37 * x_9 + 5.5 x_37 * x_16 + 15.5 x_37 * x_18 - 12.0 x_37 * x_23 - 23.0 x_37 * x_27 + 16.0 x_37 * x_29 + 22.5 x_37 * x_30 + 16.5 x_37 * x_39 + 21.5 x_37 * x_41 - 13.0 x_37 * x_42 + 10.5 x_37 * x_52 - 24.0 x_37 * x_56 + 13.0 x_37 * x_59 + 3.5 x_37 * x_66 - 4.0 x_37 * x_71 - 23.0 x_37 * x_73 - 9.0 x_37 * x_74 + 23.5 x_37 * x_83 + 18.5 x_37 * x_86 - 10.5 x_37 * x_89 + 14.5 x_37 * x_90 - 6.5 x_38 * x_1 - 6.0 x_38 * x_3 + 24.0 x_38 * x_9 + 6.0 x_38 * x_12 + 21.0 x_38 * x_15 + 14.0 x_38 * x_16 + 8.5 x_38 * x_17 + 8.0 x_38 * x_18 + 0.5 x_38 * x_23 + 3.0 x_38 * x_24 + 19.5 x_38 * x_25 - 9.0 x_38 * x_27 + 24.0 x_38 * x_28 + 21.5 x_38 * x_39 - 6.5 x_38 * x_54 + 12.5 x_38 * x_55 - 8.0 x_38 * x_64 + 7.0 x_38 * x_68 + 15.0 x_38 * x_69 - 22.0 x_38 * x_71 - 16.5 x_38 * x_77 + 18.5 x_38 * x_89 - 15.5 x_39 * x_7 + 4.5 x_39 * x_9 - 23.5 x_39 * x_13 - 24.0 x_39 * x_23 + 7.0 x_39 * x_25 - 16.0 x_39 * x_31 + 22.5 x_39 * x_35 - 11.0 x_39 * x_36 + 16.5 x_39 * x_37 + 21.5 x_39 * x_38 - 0.5 x_39 * x_45 + 12.0 x_39 * x_53 - 7.5 x_39 * x_54 + 24.0 x_39 * x_55 - 20.5 x_39 * x_60 - 24.5 x_39 * x_65 + 24.0 x_39 * x_70 + 5.0 x_39 * x_71 - 4.5 x_39 * x_73 + 4.5 x_39 * x_74 - 14.0 x_39 * x_79 + 20.0 x_39 * x_82 + 10.0 x_39 * x_85 - 15.5 x_39 * x_88 + 24.5 x_40 * x_1 + 10.5 x_40 * x_2 - 6.5 x_40 * x_4 - 9.5 x_40 * x_6 + 20.5 x_40 * x_8 - 1.5 x_40 * x_16 + 3.5 x_40 * x_26 - 17.0 x_40 * x_28 + 2.0 x_40 * x_34 + 18.5 x_40 * x_35 + 15.0 x_40 * x_36 - 19.5 x_40 * x_41 + 24.0 x_40 * x_42 - 22.0 x_40 * x_43 - 16.5 x_40 * x_47 - 21.5 x_40 * x_52 + 15.5 x_40 * x_55 - 14.0 x_40 * x_58 + 11.0 x_40 * x_60 + 21.0 x_40 * x_72 - 5.0 x_40 * x_86 - 12.0 x_40 * x_87 + 17.5 x_41 * x_6 + 20.0 x_41 * x_14 + 5.5 x_41 * x_17 - 7.5 x_41 * x_23 - 7.5 x_41 * x_25 - 22.5 x_41 * x_26 - 16.5 x_41 * x_31 + 21.5 x_41 * x_37 - 19.5 x_41 * x_40 + 23.5 x_41 * x_41 + 7.5 x_41 * x_46 + 21.5 x_41 * x_49 + 2.5 x_41 * x_51 + 2.5 x_41 * x_56 + 16.0 x_41 * x_57 + 1.0 x_41 * x_59 + 2.5 x_41 * x_62 - 10.0 x_41 * x_63 - 4.0 x_41 * x_74 + 7.5 x_41 * x_75 + 20.0 x_41 * x_77 - 2.0 x_41 * x_79 + 22.5 x_41 * x_83 + 23.0 x_41 * x_88 - 19.5 x_42 * x_1 - 12.0 x_42 * x_2 - 0.5 x_42 * x_16 + 14.0 x_42 * x_17 + 10.5 x_42 * x_28 - 14.0 x_42 * x_31 - 13.0 x_42 * x_37 + 24.0 x_42 * x_40 - 1.0 x_42 * x_42 - 18.5 x_42 * x_50 + 20.5 x_42 * x_51 - 4.0 x_42 * x_59 - 2.0 x_42 * x_60 - 16.5 x_42 * x_65 + 19.5 x_42 * x_75 + 3.0 x_42 * x_80 - 14.5 x_42 * x_83 + 10.0 x_42 * x_84 - 6.5 x_42 * x_89 - 18.0 x_43 * x_1 - 9.0 x_43 * x_2 + 24.0 x_43 * x_7 + 17.0 x_43 * x_9 - 12.5 x_43 * x_12 - 15.0 x_43 * x_22 + 24.0 x_43 * x_25 - 19.5 x_43 * x_33 - 22.0 x_43 * x_40 + 8.0 x_43 * x_45 + 11.0 x_43 * x_47 + 3.5 x_43 * x_54 - 17.0 x_43 * x_58 + 14.5 x_43 * x_69 + 1.5 x_43 * x_70 + 16.0 x_43 * x_73 + 8.5 x_43 * x_75 - 2.0 x_43 * x_79 - 11.5 x_43 * x_87 - 1.0 x_43 * x_88 - 12.5 x_44 * x_8 + 21.5 x_44 * x_11 + 7.5 x_44 * x_13 + 16.5 x_44 * x_18 + 16.0 x_44 * x_19 + 23.0 x_44 * x_20 - 18.0 x_44 * x_22 - 9.0 x_44 * x_23 - 9.0 x_44 * x_25 - 20.0 x_44 * x_27 - 15.5 x_44 * x_35 - 8.0 x_44 * x_36 - 11.5 x_44 * x_44 - 22.5 x_44 * x_53 - 16.5 x_44 * x_54 - 4.0 x_44 * x_56 + 13.5 x_44 * x_60 + 2.5 x_44 * x_62 + 4.0 x_44 * x_69 - 4.0 x_44 * x_72 + 13.5 x_44 * x_74 + 17.5 x_44 * x_75 + 6.0 x_44 * x_78 + 9.5 x_44 * x_79 + 18.5 x_44 * x_83 - 20.0 x_45 * x_3 - 17.5 x_45 * x_11 + 1.0 x_45 * x_17 + 11.5 x_45 * x_19 - 0.5 x_45 * x_39 + 8.0 x_45 * x_43 - 10.5 x_45 * x_45 - 19.5 x_45 * x_47 + 12.0 x_45 * x_63 - 14.5 x_45 * x_65 + 18.5 x_45 * x_67 + 10.5 x_45 * x_74 - 9.0 x_45 * x_77 + 24.0 x_45 * x_84 + 2.5 x_46 * x_3 - 11.5 x_46 * x_6 - 10.0 x_46 * x_7 - 21.0 x_46 * x_8 - 11.0 x_46 * x_9 + 9.5 x_46 * x_18 + 20.0 x_46 * x_24 - 7.5 x_46 * x_27 - 24.0 x_46 * x_30 + 3.0 x_46 * x_31 + 12.5 x_46 * x_33 + 7.5 x_46 * x_41 - 24.5 x_46 * x_47 - 4.5 x_46 * x_51 + 19.5 x_46 * x_54 - 8.5 x_46 * x_56 - 9.5 x_46 * x_59 - 22.0 x_46 * x_66 - 16.5 x_46 * x_69 - 8.5 x_46 * x_72 + 22.0 x_46 * x_74 - 9.0 x_46 * x_78 + 12.5 x_46 * x_79 - 8.0 x_46 * x_82 + 7.0 x_46 * x_85 - 4.5 x_46 * x_90 + 20.0 x_47 * x_6 - 16.5 x_47 * x_9 + 24.5 x_47 * x_10 + 6.5 x_47 * x_17 + 1.0 x_47 * x_27 - 4.0 x_47 * x_29 - 14.0 x_47 * x_30 - 16.0 x_47 * x_33 - 16.5 x_47 * x_40 + 11.0 x_47 * x_43 - 19.5 x_47 * x_45 - 24.5 x_47 * x_46 + 19.5 x_47 * x_50 + 13.0 x_47 * x_54 - 4.5 x_47 * x_55 + 16.0 x_47 * x_60 - 2.5 x_47 * x_63 + 10.5 x_47 * x_65 - 22.0 x_47 * x_67 - 2.5 x_47 * x_74 + 23.0 x_47 * x_77 + 22.5 x_47 * x_81 + 1.0 x_47 * x_82 + 22.0 x_48 * x_1 - 9.0 x_48 * x_2 + 21.5 x_48 * x_9 - 6.5 x_48 * x_12 + 1.5 x_48 * x_13 + 22.0 x_48 * x_14 + 10.0 x_48 * x_18 - 14.0 x_48 * x_32 + 21.0 x_48 * x_35 + 21.0 x_48 * x_59 - 10.0 x_48 * x_64 - 19.5 x_48 * x_68 - 12.0 x_48 * x_69 - 0.5 x_48 * x_74 + 11.5 x_48 * x_76 - 3.0 x_48 * x_80 + 7.5 x_48 * x_83 - 16.0 x_48 * x_85 + 19.5 x_48 * x_89 + 4.0 x_48 * x_90 + 13.0 x_49 * x_5 - 22.0 x_49 * x_8 - 5.5 x_49 * x_22 + 22.5 x_49 * x_25 + 11.5 x_49 * x_26 + 6.0 x_49 * x_31 + 2.5 x_49 * x_34 + 21.5 x_49 * x_41 + 5.5 x_49 * x_49 - 1.0 x_49 * x_64 + 9.0 x_49 * x_65 - 14.0 x_49 * x_72 - 1.5 x_49 * x_74 - 7.5 x_49 * x_78 + 17.5 x_49 * x_83 - 12.5 x_49 * x_90 - 0.5 x_50 * x_3 + 9.5 x_50 * x_4 + 14.0 x_50 * x_5 - 10.0 x_50 * x_6 - 2.0 x_50 * x_10 - 2.0 x_50 * x_13 + 22.0 x_50 * x_15 - 2.5 x_50 * x_17 - 13.5 x_50 * x_22 + 10.0 x_50 * x_34 - 18.5 x_50 * x_42 + 19.5 x_50 * x_47 - 5.0 x_50 * x_51 + 19.5 x_50 * x_59 - 23.5 x_50 * x_62 + 17.5 x_50 * x_63 + 0.5 x_50 * x_66 - 5.0 x_50 * x_71 - 15.5 x_50 * x_75 - 6.5 x_50 * x_86 - 0.5 x_50 * x_90 - 20.5 x_51 * x_4 - 19.5 x_51 * x_5 + 1.5 x_51 * x_10 - 8.5 x_51 * x_22 - 8.5 x_51 * x_23 + 20.5 x_51 * x_25 + 1.0 x_51 * x_36 + 2.5 x_51 * x_41 + 20.5 x_51 * x_42 - 4.5 x_51 * x_46 - 5.0 x_51 * x_50 + 5.0 x_51 * x_54 - 22.0 x_51 * x_56 - 12.0 x_51 * x_62 + 4.0 x_51 * x_63 + 20.5 x_51 * x_70 - 18.5 x_51 * x_71 - 5.0 x_51 * x_72 - 20.5 x_51 * x_81 - 21.5 x_51 * x_82 - 19.0 x_51 * x_87 - 8.0 x_52 * x_4 + 19.5 x_52 * x_10 + 3.5 x_52 * x_12 + 15.5 x_52 * x_14 - 8.0 x_52 * x_30 + 10.5 x_52 * x_37 - 21.5 x_52 * x_40 + 10.0 x_52 * x_57 - 4.0 x_52 * x_62 - 18.0 x_52 * x_68 + 9.0 x_52 * x_77 - 5.0 x_52 * x_79 - 20.0 x_52 * x_82 + 11.0 x_52 * x_85 - 22.0 x_52 * x_87 - 4.5 x_52 * x_89 + 11.5 x_52 * x_90 + 22.0 x_53 * x_1 + 17.5 x_53 * x_3 + 6.0 x_53 * x_7 + 19.5 x_53 * x_8 - 17.5 x_53 * x_20 - 15.0 x_53 * x_21 - 15.0 x_53 * x_22 + 2.5 x_53 * x_25 + 12.0 x_53 * x_39 - 22.5 x_53 * x_44 + 3.0 x_53 * x_59 + 23.0 x_53 * x_66 - 14.5 x_53 * x_68 - 3.0 x_53 * x_74 + 4.0 x_53 * x_77 - 4.0 x_53 * x_82 + 22.5 x_53 * x_86 - 5.5 x_53 * x_87 + 11.0 x_54 * x_2 + 17.0 x_54 * x_5 - 18.5 x_54 * x_6 - 4.0 x_54 * x_7 + 6.5 x_54 * x_10 - 7.5 x_54 * x_11 - 22.0 x_54 * x_15 - 18.0 x_54 * x_19 + 6.0 x_54 * x_25 - 19.0 x_54 * x_27 + 16.0 x_54 * x_30 + 21.0 x_54 * x_31 - 15.0 x_54 * x_33 - 6.5 x_54 * x_38 - 7.5 x_54 * x_39 + 3.5 x_54 * x_43 - 16.5 x_54 * x_44 + 19.5 x_54 * x_46 + 13.0 x_54 * x_47 + 5.0 x_54 * x_51 - 18.0 x_54 * x_56 - 20.0 x_54 * x_57 + 15.0 x_54 * x_59 + 4.0 x_54 * x_65 + 2.5 x_54 * x_66 + 0.5 x_54 * x_67 + 2.5 x_54 * x_76 - 16.0 x_54 * x_78 - 22.0 x_55 * x_14 - 20.5 x_55 * x_15 - 1.0 x_55 * x_17 - 17.5 x_55 * x_19 + 17.5 x_55 * x_20 - 23.5 x_55 * x_32 - 20.5 x_55 * x_33 - 9.0 x_55 * x_34 - 14.5 x_55 * x_35 + 12.5 x_55 * x_38 + 24.0 x_55 * x_39 + 15.5 x_55 * x_40 - 4.5 x_55 * x_47 + 2.5 x_55 * x_56 + 1.5 x_55 * x_57 - 16.5 x_55 * x_59 - 21.5 x_55 * x_66 - 4.0 x_55 * x_72 + 22.0 x_55 * x_79 + 3.0 x_55 * x_87 - 12.0 x_56 * x_3 + 12.0 x_56 * x_6 + 7.0 x_56 * x_18 - 13.5 x_56 * x_19 - 12.5 x_56 * x_21 - 16.0 x_56 * x_23 - 20.0 x_56 * x_24 - 7.0 x_56 * x_25 + 2.5 x_56 * x_26 + 3.5 x_56 * x_33 - 24.0 x_56 * x_37 + 2.5 x_56 * x_41 - 4.0 x_56 * x_44 - 8.5 x_56 * x_46 - 22.0 x_56 * x_51 - 18.0 x_56 * x_54 + 2.5 x_56 * x_55 + 6.5 x_56 * x_56 + 8.5 x_56 * x_58 - 22.0 x_56 * x_63 - 9.5 x_56 * x_66 - 10.0 x_56 * x_69 + 19.5 x_56 * x_73 - 15.5 x_56 * x_75 + 12.0 x_56 * x_78 - 4.5 x_56 * x_80 + 1.5 x_56 * x_86 + 7.5 x_56 * x_88 - 12.5 x_57 * x_1 + 6.5 x_57 * x_2 + 7.0 x_57 * x_5 + 22.5 x_57 * x_6 + 20.0 x_57 * x_11 + 8.5 x_57 * x_15 + 4.0 x_57 * x_20 - 11.0 x_57 * x_22 - 18.0 x_57 * x_23 + 17.0 x_57 * x_26 + 6.5 x_57 * x_28 + 19.5 x_57 * x_29 - 17.5 x_57 * x_32 + 16.0 x_57 * x_41 + 10.0 x_57 * x_52 - 20.0 x_57 * x_54 + 1.5 x_57 * x_55 + 4.5 x_57 * x_66 + 4.0 x_57 * x_84 + 24.5 x_57 * x_85 - 4.0 x_58 * x_5 - 16.0 x_58 * x_6 - 5.5 x_58 * x_8 + 16.5 x_58 * x_10 - 14.0 x_58 * x_12 - 12.0 x_58 * x_17 - 9.5 x_58 * x_21 + 18.5 x_58 * x_25 + 16.0 x_58 * x_27 - 7.0 x_58 * x_28 - 1.0 x_58 * x_31 - 0.5 x_58 * x_32 + 5.5 x_58 * x_34 + 14.5 x_58 * x_35 - 14.0 x_58 * x_40 - 17.0 x_58 * x_43 + 8.5 x_58 * x_56 + 0.5 x_58 * x_58 - 23.0 x_58 * x_61 + 17.0 x_58 * x_62 - 24.5 x_58 * x_67 + 12.0 x_58 * x_69 - 11.5 x_58 * x_70 - 10.5 x_58 * x_71 - 6.5 x_58 * x_72 + 7.0 x_58 * x_73 - 24.0 x_59 * x_10 - 20.0 x_59 * x_12 - 16.0 x_59 * x_14 + 16.5 x_59 * x_17 + 17.0 x_59 * x_19 - 13.5 x_59 * x_22 - 10.5 x_59 * x_33 - 11.5 x_59 * x_35 + 13.0 x_59 * x_37 + 1.0 x_59 * x_41 - 4.0 x_59 * x_42 - 9.5 x_59 * x_46 + 21.0 x_59 * x_48 + 19.5 x_59 * x_50 + 3.0 x_59 * x_53 + 15.0 x_59 * x_54 - 16.5 x_59 * x_55 - 11.5 x_59 * x_60 - 1.0 x_59 * x_62 - 7.5 x_59 * x_63 - 15.5 x_59 * x_67 - 21.5 x_59 * x_71 + 15.5 x_59 * x_77 + 1.5 x_59 * x_78 - 16.0 x_59 * x_86 - 5.5 x_60 * x_4 - 16.0 x_60 * x_8 - 9.0 x_60 * x_9 + 20.5 x_60 * x_14 + 4.5 x_60 * x_16 - 12.0 x_60 * x_20 - 7.5 x_60 * x_21 - 11.5 x_60 * x_28 - 6.0 x_60 * x_32 + 10.0 x_60 * x_35 - 20.5 x_60 * x_39 + 11.0 x_60 * x_40 - 2.0 x_60 * x_42 + 13.5 x_60 * x_44 + 16.0 x_60 * x_47 - 11.5 x_60 * x_59 + 22.5 x_60 * x_63 + 11.5 x_60 * x_70 + 1.0 x_60 * x_71 + 12.0 x_60 * x_73 - 8.5 x_60 * x_74 + 4.0 x_60 * x_79 + 3.0 x_60 * x_80 + 15.0 x_60 * x_82 - 20.0 x_60 * x_85 + 15.5 x_60 * x_88 - 18.0 x_60 * x_90 - 12.0 x_61 * x_4 + 2.0 x_61 * x_14 - 24.5 x_61 * x_19 + 5.0 x_61 * x_26 + 22.0 x_61 * x_27 - 3.5 x_61 * x_28 - 17.0 x_61 * x_30 - 22.5 x_61 * x_32 - 23.0 x_61 * x_58 - 2.5 x_61 * x_61 + 22.0 x_61 * x_66 - 23.5 x_61 * x_69 - 19.0 x_61 * x_71 - 9.5 x_61 * x_72 - 3.0 x_61 * x_74 - 15.0 x_61 * x_75 + 2.0 x_61 * x_76 - 21.5 x_61 * x_79 - 12.5 x_61 * x_82 - 19.5 x_62 * x_2 - 9.0 x_62 * x_8 - 15.0 x_62 * x_10 - 9.5 x_62 * x_11 - 7.0 x_62 * x_16 - 2.0 x_62 * x_22 + 5.5 x_62 * x_24 + 10.5 x_62 * x_30 + 3.5 x_62 * x_33 - 0.5 x_62 * x_36 + 2.5 x_62 * x_41 + 2.5 x_62 * x_44 - 23.5 x_62 * x_50 - 12.0 x_62 * x_51 - 4.0 x_62 * x_52 + 17.0 x_62 * x_58 - 1.0 x_62 * x_59 - 16.0 x_62 * x_67 - 6.5 x_62 * x_70 + 16.0 x_62 * x_73 - 5.0 x_62 * x_80 - 6.0 x_62 * x_83 - 3.5 x_62 * x_89 + 6.0 x_63 * x_4 + 23.5 x_63 * x_7 + 15.0 x_63 * x_12 + 4.0 x_63 * x_17 + 11.5 x_63 * x_18 + 8.5 x_63 * x_28 + 19.0 x_63 * x_32 + 4.5 x_63 * x_34 - 10.0 x_63 * x_41 + 12.0 x_63 * x_45 - 2.5 x_63 * x_47 + 17.5 x_63 * x_50 + 4.0 x_63 * x_51 - 22.0 x_63 * x_56 - 7.5 x_63 * x_59 + 22.5 x_63 * x_60 + 9.5 x_63 * x_64 - 24.0 x_63 * x_67 + 2.0 x_63 * x_69 + 12.0 x_63 * x_81 + 3.5 x_63 * x_84 + 16.0 x_63 * x_87 + 14.0 x_64 * x_2 - 2.5 x_64 * x_6 + 11.5 x_64 * x_7 + 23.0 x_64 * x_9 - 23.0 x_64 * x_18 - 10.0 x_64 * x_22 - 2.5 x_64 * x_26 + 6.0 x_64 * x_28 - 2.0 x_64 * x_29 + 17.5 x_64 * x_30 - 8.0 x_64 * x_38 - 10.0 x_64 * x_48 - 1.0 x_64 * x_49 + 9.5 x_64 * x_63 - 0.5 x_64 * x_66 - 16.0 x_64 * x_75 + 5.0 x_64 * x_77 - 8.5 x_64 * x_78 - 14.0 x_64 * x_79 - 6.5 x_64 * x_82 + 15.5 x_64 * x_83 + 15.0 x_65 * x_4 + 22.5 x_65 * x_7 - 4.0 x_65 * x_9 + 24.5 x_65 * x_11 - 17.5 x_65 * x_13 + 3.0 x_65 * x_17 - 12.5 x_65 * x_30 + 14.5 x_65 * x_32 - 24.5 x_65 * x_39 - 16.5 x_65 * x_42 - 14.5 x_65 * x_45 + 10.5 x_65 * x_47 + 9.0 x_65 * x_49 + 4.0 x_65 * x_54 - 19.0 x_65 * x_66 - 16.0 x_65 * x_67 + 21.0 x_65 * x_68 + 21.0 x_65 * x_73 - 3.0 x_65 * x_75 - 20.0 x_65 * x_76 - 20.0 x_65 * x_80 + 4.5 x_65 * x_82 - 16.5 x_65 * x_83 - 4.0 x_65 * x_88 - 10.0 x_66 * x_1 - 7.0 x_66 * x_9 - 22.0 x_66 * x_13 + 11.0 x_66 * x_18 + 6.0 x_66 * x_25 + 22.0 x_66 * x_26 - 15.0 x_66 * x_31 - 12.0 x_66 * x_34 + 3.5 x_66 * x_37 - 22.0 x_66 * x_46 + 0.5 x_66 * x_50 + 23.0 x_66 * x_53 + 2.5 x_66 * x_54 - 21.5 x_66 * x_55 - 9.5 x_66 * x_56 + 4.5 x_66 * x_57 + 22.0 x_66 * x_61 - 0.5 x_66 * x_64 - 19.0 x_66 * x_65 - 20.5 x_66 * x_66 - 20.5 x_66 * x_71 - 24.0 x_66 * x_76 - 10.0 x_66 * x_80 + 8.0 x_66 * x_85 - 23.0 x_66 * x_87 - 3.5 x_66 * x_89 - 10.5 x_67 * x_2 - 8.0 x_67 * x_6 - 3.5 x_67 * x_8 + 15.0 x_67 * x_12 - 10.0 x_67 * x_21 + 6.5 x_67 * x_24 - 7.5 x_67 * x_27 - 5.5 x_67 * x_29 + 18.0 x_67 * x_31 - 14.0 x_67 * x_33 + 18.5 x_67 * x_45 - 22.0 x_67 * x_47 + 0.5 x_67 * x_54 - 24.5 x_67 * x_58 - 15.5 x_67 * x_59 - 16.0 x_67 * x_62 - 24.0 x_67 * x_63 - 16.0 x_67 * x_65 - 15.0 x_67 * x_67 + 12.5 x_67 * x_73 - 1.5 x_67 * x_77 + 8.5 x_67 * x_80 + 22.0 x_67 * x_81 - 19.0 x_67 * x_85 + 10.5 x_67 * x_89 + 20.5 x_68 * x_3 + 22.5 x_68 * x_4 - 7.5 x_68 * x_5 + 7.0 x_68 * x_7 + 17.0 x_68 * x_17 + 7.0 x_68 * x_28 - 10.0 x_68 * x_30 + 10.5 x_68 * x_34 + 7.0 x_68 * x_38 - 19.5 x_68 * x_48 - 18.0 x_68 * x_52 - 14.5 x_68 * x_53 + 21.0 x_68 * x_65 - 20.5 x_68 * x_71 - 12.5 x_68 * x_79 - 19.0 x_68 * x_80 - 22.5 x_68 * x_82 - 10.5 x_68 * x_86 + 4.5 x_68 * x_89 - 21.5 x_69 * x_3 - 16.5 x_69 * x_4 + 19.5 x_69 * x_11 - 8.5 x_69 * x_13 + 9.0 x_69 * x_15 + 23.5 x_69 * x_16 + 7.0 x_69 * x_17 - 20.5 x_69 * x_23 + 21.5 x_69 * x_25 - 19.0 x_69 * x_27 - 11.5 x_69 * x_29 - 18.0 x_69 * x_30 + 19.5 x_69 * x_31 - 21.0 x_69 * x_34 + 1.0 x_69 * x_36 + 15.0 x_69 * x_38 + 14.5 x_69 * x_43 + 4.0 x_69 * x_44 - 16.5 x_69 * x_46 - 12.0 x_69 * x_48 - 10.0 x_69 * x_56 + 12.0 x_69 * x_58 - 23.5 x_69 * x_61 + 2.0 x_69 * x_63 + 6.5 x_69 * x_69 + 22.0 x_69 * x_72 + 1.5 x_69 * x_78 + 24.5 x_69 * x_85 + 19.5 x_69 * x_87 - 2.5 x_69 * x_88 - 17.5 x_70 * x_8 - 9.0 x_70 * x_9 + 19.0 x_70 * x_13 + 22.5 x_70 * x_14 + 20.0 x_70 * x_18 - 11.5 x_70 * x_20 - 11.5 x_70 * x_22 + 6.5 x_70 * x_28 + 18.5 x_70 * x_30 - 1.5 x_70 * x_31 - 11.0 x_70 * x_32 + 2.0 x_70 * x_36 + 24.0 x_70 * x_39 + 1.5 x_70 * x_43 + 20.5 x_70 * x_51 - 11.5 x_70 * x_58 + 11.5 x_70 * x_60 - 6.5 x_70 * x_62 + 24.5 x_70 * x_73 - 1.0 x_70 * x_74 + 10.5 x_70 * x_77 + 19.0 x_70 * x_80 - 13.5 x_70 * x_86 - 17.0 x_70 * x_87 - 17.5 x_70 * x_89 + 19.5 x_71 * x_4 - 2.5 x_71 * x_9 + 24.0 x_71 * x_12 + 21.0 x_71 * x_13 - 9.0 x_71 * x_17 - 3.0 x_71 * x_23 - 4.0 x_71 * x_37 - 22.0 x_71 * x_38 + 5.0 x_71 * x_39 - 5.0 x_71 * x_50 - 18.5 x_71 * x_51 - 10.5 x_71 * x_58 - 21.5 x_71 * x_59 + 1.0 x_71 * x_60 - 19.0 x_71 * x_61 - 20.5 x_71 * x_66 - 20.5 x_71 * x_68 - 6.0 x_71 * x_79 - 4.5 x_71 * x_87 + 7.0 x_71 * x_89 + 15.0 x_72 * x_7 - 24.5 x_72 * x_12 - 13.0 x_72 * x_14 - 8.0 x_72 * x_21 - 17.0 x_72 * x_27 + 21.0 x_72 * x_40 - 4.0 x_72 * x_44 - 8.5 x_72 * x_46 - 14.0 x_72 * x_49 - 5.0 x_72 * x_51 - 4.0 x_72 * x_55 - 6.5 x_72 * x_58 - 9.5 x_72 * x_61 + 22.0 x_72 * x_69 + 1.0 x_72 * x_76 + 4.5 x_72 * x_78 - 23.0 x_72 * x_84 + 1.0 x_72 * x_85 - 15.5 x_73 * x_5 + 2.0 x_73 * x_10 + 1.0 x_73 * x_16 + 7.0 x_73 * x_25 + 2.0 x_73 * x_30 + 11.0 x_73 * x_31 + 6.0 x_73 * x_35 - 23.0 x_73 * x_37 - 4.5 x_73 * x_39 + 16.0 x_73 * x_43 + 19.5 x_73 * x_56 + 7.0 x_73 * x_58 + 12.0 x_73 * x_60 + 16.0 x_73 * x_62 + 21.0 x_73 * x_65 + 12.5 x_73 * x_67 + 24.5 x_73 * x_70 + 2.5 x_73 * x_75 - 17.0 x_73 * x_80 + 21.5 x_73 * x_81 - 7.5 x_73 * x_84 - 6.0 x_73 * x_85 + 21.5 x_73 * x_89 + 1.0 x_74 * x_2 - 16.5 x_74 * x_8 - 2.5 x_74 * x_10 + 4.0 x_74 * x_11 - 14.5 x_74 * x_17 - 23.0 x_74 * x_23 + 17.0 x_74 * x_26 - 18.0 x_74 * x_27 + 4.0 x_74 * x_35 - 21.5 x_74 * x_36 - 9.0 x_74 * x_37 + 4.5 x_74 * x_39 - 4.0 x_74 * x_41 + 13.5 x_74 * x_44 + 10.5 x_74 * x_45 + 22.0 x_74 * x_46 - 2.5 x_74 * x_47 - 0.5 x_74 * x_48 - 1.5 x_74 * x_49 - 3.0 x_74 * x_53 - 8.5 x_74 * x_60 - 3.0 x_74 * x_61 - 1.0 x_74 * x_70 + 14.0 x_74 * x_78 + 24.5 x_74 * x_80 + 15.0 x_74 * x_81 + 10.5 x_74 * x_82 - 19.5 x_74 * x_87 - 18.0 x_74 * x_90 - 8.5 x_75 * x_5 - 13.5 x_75 * x_6 - 0.5 x_75 * x_10 - 1.0 x_75 * x_12 + 5.0 x_75 * x_13 - 5.0 x_75 * x_15 + 22.5 x_75 * x_16 - 14.5 x_75 * x_18 + 9.0 x_75 * x_20 - 19.0 x_75 * x_27 + 7.5 x_75 * x_41 + 19.5 x_75 * x_42 + 8.5 x_75 * x_43 + 17.5 x_75 * x_44 - 15.5 x_75 * x_50 - 15.5 x_75 * x_56 - 15.0 x_75 * x_61 - 16.0 x_75 * x_64 - 3.0 x_75 * x_65 + 2.5 x_75 * x_73 - 20.5 x_75 * x_75 + 21.5 x_75 * x_78 - 18.0 x_75 * x_82 - 17.0 x_75 * x_86 - 3.0 x_76 * x_6 + 19.5 x_76 * x_13 + 1.0 x_76 * x_15 + 1.5 x_76 * x_20 - 22.0 x_76 * x_24 - 23.5 x_76 * x_31 - 0.5 x_76 * x_34 + 11.5 x_76 * x_48 + 2.5 x_76 * x_54 + 2.0 x_76 * x_61 - 20.0 x_76 * x_65 - 24.0 x_76 * x_66 + 1.0 x_76 * x_72 - 17.5 x_76 * x_77 - 11.5 x_76 * x_78 - 7.0 x_76 * x_79 - 21.5 x_76 * x_84 - 9.5 x_76 * x_90 + 22.0 x_77 * x_9 - 16.5 x_77 * x_15 - 20.5 x_77 * x_16 - 18.5 x_77 * x_32 + 23.5 x_77 * x_33 + 7.5 x_77 * x_34 - 16.5 x_77 * x_38 + 20.0 x_77 * x_41 - 9.0 x_77 * x_45 + 23.0 x_77 * x_47 + 9.0 x_77 * x_52 + 4.0 x_77 * x_53 + 15.5 x_77 * x_59 + 5.0 x_77 * x_64 - 1.5 x_77 * x_67 + 10.5 x_77 * x_70 - 17.5 x_77 * x_76 - 23.5 x_77 * x_77 - 11.5 x_77 * x_78 + 23.0 x_77 * x_80 - 12.5 x_77 * x_89 - 8.0 x_78 * x_4 + 17.0 x_78 * x_7 - 14.0 x_78 * x_12 + 11.5 x_78 * x_18 + 6.0 x_78 * x_19 - 10.5 x_78 * x_25 - 19.5 x_78 * x_29 + 21.5 x_78 * x_36 + 6.0 x_78 * x_44 - 9.0 x_78 * x_46 - 7.5 x_78 * x_49 - 16.0 x_78 * x_54 + 12.0 x_78 * x_56 + 1.5 x_78 * x_59 - 8.5 x_78 * x_64 + 1.5 x_78 * x_69 + 4.5 x_78 * x_72 + 14.0 x_78 * x_74 + 21.5 x_78 * x_75 - 11.5 x_78 * x_76 - 11.5 x_78 * x_77 - 9.5 x_78 * x_78 + 24.5 x_78 * x_82 - 5.0 x_78 * x_89 + 19.5 x_78 * x_90 - 21.5 x_79 * x_5 - 23.0 x_79 * x_22 + 4.5 x_79 * x_25 - 14.0 x_79 * x_39 - 2.0 x_79 * x_41 - 2.0 x_79 * x_43 + 9.5 x_79 * x_44 + 12.5 x_79 * x_46 - 5.0 x_79 * x_52 + 22.0 x_79 * x_55 + 4.0 x_79 * x_60 - 21.5 x_79 * x_61 - 14.0 x_79 * x_64 - 12.5 x_79 * x_68 - 6.0 x_79 * x_71 - 7.0 x_79 * x_76 - 11.0 x_79 * x_82 - 3.0 x_79 * x_85 - 14.0 x_79 * x_89 - 22.5 x_80 * x_5 + 2.5 x_80 * x_8 + 16.5 x_80 * x_9 + 0.5 x_80 * x_13 + 0.5 x_80 * x_15 + 0.5 x_80 * x_16 - 5.0 x_80 * x_21 - 4.0 x_80 * x_30 - 5.5 x_80 * x_32 - 22.0 x_80 * x_34 + 3.5 x_80 * x_35 + 3.0 x_80 * x_42 - 3.0 x_80 * x_48 - 4.5 x_80 * x_56 + 3.0 x_80 * x_60 - 5.0 x_80 * x_62 - 20.0 x_80 * x_65 - 10.0 x_80 * x_66 + 8.5 x_80 * x_67 - 19.0 x_80 * x_68 + 19.0 x_80 * x_70 - 17.0 x_80 * x_73 + 24.5 x_80 * x_74 + 23.0 x_80 * x_77 - 18.5 x_80 * x_80 + 24.0 x_80 * x_86 - 17.0 x_80 * x_90 + 24.5 x_81 * x_6 - 15.0 x_81 * x_9 - 24.0 x_81 * x_11 + 4.0 x_81 * x_13 + 18.0 x_81 * x_25 + 21.5 x_81 * x_30 + 8.5 x_81 * x_36 + 22.5 x_81 * x_47 - 20.5 x_81 * x_51 + 12.0 x_81 * x_63 + 22.0 x_81 * x_67 + 21.5 x_81 * x_73 + 15.0 x_81 * x_74 + 3.0 x_81 * x_88 - 17.5 x_81 * x_90 + 20.5 x_82 * x_1 - 7.5 x_82 * x_5 - 17.5 x_82 * x_6 - 20.0 x_82 * x_9 + 12.0 x_82 * x_10 + 16.0 x_82 * x_13 - 2.5 x_82 * x_14 - 22.0 x_82 * x_17 + 2.5 x_82 * x_21 + 3.0 x_82 * x_22 + 11.0 x_82 * x_24 + 9.0 x_82 * x_30 + 20.0 x_82 * x_39 - 8.0 x_82 * x_46 + 1.0 x_82 * x_47 - 21.5 x_82 * x_51 - 20.0 x_82 * x_52 - 4.0 x_82 * x_53 + 15.0 x_82 * x_60 - 12.5 x_82 * x_61 - 6.5 x_82 * x_64 + 4.5 x_82 * x_65 - 22.5 x_82 * x_68 + 10.5 x_82 * x_74 - 18.0 x_82 * x_75 + 24.5 x_82 * x_78 - 11.0 x_82 * x_79 + 24.0 x_82 * x_84 + 22.5 x_82 * x_89 - 21.0 x_83 * x_4 - 3.5 x_83 * x_11 + 6.0 x_83 * x_22 - 23.5 x_83 * x_25 - 22.0 x_83 * x_36 + 23.5 x_83 * x_37 + 22.5 x_83 * x_41 - 14.5 x_83 * x_42 + 18.5 x_83 * x_44 + 7.5 x_83 * x_48 + 17.5 x_83 * x_49 - 6.0 x_83 * x_62 + 15.5 x_83 * x_64 - 16.5 x_83 * x_65 + 1.5 x_83 * x_84 - 18.0 x_84 * x_1 + 8.5 x_84 * x_3 + 12.0 x_84 * x_4 - 22.0 x_84 * x_5 - 3.0 x_84 * x_12 - 8.5 x_84 * x_13 + 23.0 x_84 * x_16 + 6.0 x_84 * x_20 + 7.0 x_84 * x_21 - 18.5 x_84 * x_23 - 8.0 x_84 * x_27 + 10.0 x_84 * x_30 - 23.5 x_84 * x_31 + 10.0 x_84 * x_42 + 24.0 x_84 * x_45 + 4.0 x_84 * x_57 + 3.5 x_84 * x_63 - 23.0 x_84 * x_72 - 7.5 x_84 * x_73 - 21.5 x_84 * x_76 + 24.0 x_84 * x_82 + 1.5 x_84 * x_83 + 13.0 x_85 * x_8 - 17.5 x_85 * x_12 - 5.5 x_85 * x_14 + 0.5 x_85 * x_19 - 23.5 x_85 * x_22 - 17.0 x_85 * x_24 - 9.5 x_85 * x_25 - 0.5 x_85 * x_26 + 12.5 x_85 * x_33 - 14.0 x_85 * x_35 - 13.0 x_85 * x_36 + 10.0 x_85 * x_39 + 7.0 x_85 * x_46 - 16.0 x_85 * x_48 + 11.0 x_85 * x_52 + 24.5 x_85 * x_57 - 20.0 x_85 * x_60 + 8.0 x_85 * x_66 - 19.0 x_85 * x_67 + 24.5 x_85 * x_69 + 1.0 x_85 * x_72 - 6.0 x_85 * x_73 - 3.0 x_85 * x_79 + 17.0 x_85 * x_86 - 22.5 x_85 * x_88 + 6.0 x_85 * x_90 + 10.5 x_86 * x_2 - 2.0 x_86 * x_4 + 11.5 x_86 * x_6 - 7.5 x_86 * x_11 - 14.0 x_86 * x_18 - 6.0 x_86 * x_20 + 14.5 x_86 * x_24 + 5.0 x_86 * x_32 + 18.5 x_86 * x_37 - 5.0 x_86 * x_40 - 6.5 x_86 * x_50 + 22.5 x_86 * x_53 + 1.5 x_86 * x_56 - 16.0 x_86 * x_59 - 10.5 x_86 * x_68 - 13.5 x_86 * x_70 - 17.0 x_86 * x_75 + 24.0 x_86 * x_80 + 17.0 x_86 * x_85 - 1.5 x_87 * x_4 - 20.0 x_87 * x_5 + 9.5 x_87 * x_8 - 16.5 x_87 * x_10 + 1.0 x_87 * x_13 - 7.5 x_87 * x_23 - 22.0 x_87 * x_29 - 20.5 x_87 * x_32 - 1.5 x_87 * x_34 - 12.0 x_87 * x_40 - 11.5 x_87 * x_43 - 19.0 x_87 * x_51 - 22.0 x_87 * x_52 - 5.5 x_87 * x_53 + 3.0 x_87 * x_55 + 16.0 x_87 * x_63 - 23.0 x_87 * x_66 + 19.5 x_87 * x_69 - 17.0 x_87 * x_70 - 4.5 x_87 * x_71 - 19.5 x_87 * x_74 - 21.0 x_88 * x_1 + 8.5 x_88 * x_4 - 17.5 x_88 * x_5 + 16.0 x_88 * x_17 + 15.5 x_88 * x_20 - 15.0 x_88 * x_21 + 3.5 x_88 * x_24 - 15.0 x_88 * x_32 - 15.5 x_88 * x_39 + 23.0 x_88 * x_41 - 1.0 x_88 * x_43 + 7.5 x_88 * x_56 + 15.5 x_88 * x_60 - 4.0 x_88 * x_65 - 2.5 x_88 * x_69 + 3.0 x_88 * x_81 - 22.5 x_88 * x_85 + 20.5 x_88 * x_88 + 9.0 x_89 * x_5 + 6.0 x_89 * x_7 - 15.0 x_89 * x_8 - 13.5 x_89 * x_11 - 14.5 x_89 * x_13 - 10.0 x_89 * x_16 - 13.5 x_89 * x_18 - 2.0 x_89 * x_22 + 14.0 x_89 * x_23 - 21.5 x_89 * x_26 + 19.5 x_89 * x_28 - 2.0 x_89 * x_32 + 19.5 x_89 * x_35 - 10.5 x_89 * x_37 + 18.5 x_89 * x_38 - 6.5 x_89 * x_42 + 19.5 x_89 * x_48 - 4.5 x_89 * x_52 - 3.5 x_89 * x_62 - 3.5 x_89 * x_66 + 10.5 x_89 * x_67 + 4.5 x_89 * x_68 - 17.5 x_89 * x_70 + 7.0 x_89 * x_71 + 21.5 x_89 * x_73 - 12.5 x_89 * x_77 - 5.0 x_89 * x_78 - 14.0 x_89 * x_79 + 22.5 x_89 * x_82 + 19.0 x_90 * x_4 - 18.5 x_90 * x_5 - 20.5 x_90 * x_6 + 9.0 x_90 * x_8 + 8.0 x_90 * x_9 + 19.5 x_90 * x_13 + 19.0 x_90 * x_15 + 11.0 x_90 * x_16 - 0.5 x_90 * x_32 + 14.5 x_90 * x_37 - 4.5 x_90 * x_46 + 4.0 x_90 * x_48 - 12.5 x_90 * x_49 - 0.5 x_90 * x_50 + 11.5 x_90 * x_52 - 18.0 x_90 * x_60 - 18.0 x_90 * x_74 - 9.5 x_90 * x_76 + 19.5 x_90 * x_78 - 17.0 x_90 * x_80 - 17.5 x_90 * x_81 + 6.0 x_90 * x_85 ] + 0.0 x_1 - 40.0 x_2 + 0.0 x_3 - 26.0 x_4 + 0.0 x_5 - 24.0 x_6 + 2.0 x_7 + 0.0 x_8 + 1.0 x_9 + 0.0 x_10 - 38.0 x_11 + 0.0 x_12 + 35.0 x_13 + 0.0 x_14 - 4.0 x_15 + 0.0 x_16 - 6.0 x_17 + 0.0 x_18 + 0.0 x_19 + 0.0 x_20 - 44.0 x_21 - 37.0 x_22 + 0.0 x_23 + 0.0 x_24 - 22.0 x_25 + 39.0 x_26 + 0.0 x_27 + 0.0 x_28 + 0.0 x_29 + 0.0 x_30 + 0.0 x_31 - 4.0 x_32 + 21.0 x_33 + 27.0 x_34 + 0.0 x_35 + 0.0 x_36 + 0.0 x_37 + 45.0 x_38 + 0.0 x_39 + 0.0 x_40 + 0.0 x_41 + 0.0 x_42 + 0.0 x_43 + 0.0 x_44 + 0.0 x_45 - 27.0 x_46 + 0.0 x_47 + 0.0 x_48 + 0.0 x_49 + 0.0 x_50 + 0.0 x_51 + 0.0 x_52 - 6.0 x_53 + 0.0 x_54 + 0.0 x_55 + 0.0 x_56 + 0.0 x_57 - 5.0 x_58 + 0.0 x_59 + 0.0 x_60 + 0.0 x_61 + 0.0 x_62 + 0.0 x_63 + 0.0 x_64 + 0.0 x_65 + 0.0 x_66 - 16.0 x_67 + 0.0 x_68 + 0.0 x_69 + 0.0 x_70 + 0.0 x_71 - 31.0 x_72 + 0.0 x_73 + 0.0 x_74 + 0.0 x_75 + 2.0 x_76 + 0.0 x_77 + 0.0 x_78 + 0.0 x_79 + 0.0 x_80 + 0.0 x_81 + 0.0 x_82 + 0.0 x_83 + 0.0 x_84 + 20.0 x_85 + 0.0 x_86 + 0.0 x_87 + 0.0 x_88 + 0.0 x_89 + 0.0 x_90

Subject To

Bounds
 x_1 <= 1.0
 x_2 <= 1.0
 x_3 <= 1.0
 x_4 <= 1.0
 x_5 <= 1.0
 x_6 <= 1.0
 x_7 <= 1.0
 x_8 <= 1.0
 x_9 <= 1.0
 x_10 <= 1.0
 x_11 <= 1.0
 x_12 <= 1.0
 x_13 <= 1.0
 x_14 <= 1.0
 x_15 <= 1.0
 x_16 <= 1.0
 x_17 <= 1.0
 x_18 <= 1.0
 x_19 <= 1.0
 x_20 <= 1.0
 x_21 <= 1.0
 x_22 <= 1.0
 x_23 <= 1.0
 x_24 <= 1.0
 x_25 <= 1.0
 x_26 <= 1.0
 x_27 <= 1.0
 x_28 <= 1.0
 x_29 <= 1.0
 x_30 <= 1.0
 x_31 <= 1.0
 x_32 <= 1.0
 x_33 <= 1.0
 x_34 <= 1.0
 x_35 <= 1.0
 x_36 <= 1.0
 x_37 <= 1.0
 x_38 <= 1.0
 x_39 <= 1.0
 x_40 <= 1.0
 x_41 <= 1.0
 x_42 <= 1.0
 x_43 <= 1.0
 x_44 <= 1.0
 x_45 <= 1.0
 x_46 <= 1.0
 x_47 <= 1.0
 x_48 <= 1.0
 x_49 <= 1.0
 x_50 <= 1.0
 x_51 <= 1.0
 x_52 <= 1.0
 x_53 <= 1.0
 x_54 <= 1.0
 x_55 <= 1.0
 x_56 <= 1.0
 x_57 <= 1.0
 x_58 <= 1.0
 x_59 <= 1.0
 x_60 <= 1.0
 x_61 <= 1.0
 x_62 <= 1.0
 x_63 <= 1.0
 x_64 <= 1.0
 x_65 <= 1.0
 x_66 <= 1.0
 x_67 <= 1.0
 x_68 <= 1.0
 x_69 <= 1.0
 x_70 <= 1.0
 x_71 <= 1.0
 x_72 <= 1.0
 x_73 <= 1.0
 x_74 <= 1.0
 x_75 <= 1.0
 x_76 <= 1.0
 x_77 <= 1.0
 x_78 <= 1.0
 x_79 <= 1.0
 x_80 <= 1.0
 x_81 <= 1.0
 x_82 <= 1.0
 x_83 <= 1.0
 x_84 <= 1.0
 x_85 <= 1.0
 x_86 <= 1.0
 x_87 <= 1.0
 x_88 <= 1.0
 x_89 <= 1.0
 x_90 <= 1.0

End